p cnf 430 1488
-191 166 0
-191 -114 0
-191 104 0
-191 43 0
-191 133 0
191 -166 114 -104 -43 -133 0
-192 -116 0
-192 -109 0
-192 5 0
-192 169 0
-192 28 0
192 116 109 -5 -169 -28 0
-193 9 0
-193 -113 0
-193 -80 0
-193 150 0
-193 -59 0
193 -9 113 80 -150 59 0
-194 -158 0
-194 129 0
-194 -100 0
-194 153 0
-194 115 0
194 158 -129 100 -153 -115 0
-195 -166 0
-195 -29 0
-195 -22 0
-195 96 0
-195 139 0
195 166 29 22 -96 -139 0
191 192 193 194 195 0
-196 112 0
-196 -20 0
-196 1 0
-196 -169 0
-196 7 0
196 -112 20 -1 169 -7 0
-197 -174 0
-197 -45 0
-197 -188 0
-197 -146 0
-197 179 0
197 174 45 188 146 -179 0
-198 80 0
-198 120 0
-198 -131 0
-198 -169 0
-198 -147 0
198 -80 -120 131 169 147 0
-199 -31 0
-199 141 0
-199 -154 0
-199 145 0
-199 -171 0
199 31 -141 154 -145 171 0
-200 -67 0
-200 -44 0
-200 -79 0
-200 -122 0
-200 144 0
200 67 44 79 122 -144 0
196 197 198 199 200 0
-201 -120 0
-201 -166 0
-201 -118 0
-201 -17 0
-201 158 0
201 120 166 118 17 -158 0
-202 142 0
-202 133 0
-202 -160 0
-202 -112 0
-202 151 0
202 -142 -133 160 112 -151 0
-203 -8 0
-203 75 0
-203 -35 0
-203 -81 0
-203 -132 0
203 8 -75 35 81 132 0
-204 -188 0
-204 10 0
-204 58 0
-204 22 0
-204 -184 0
204 188 -10 -58 -22 184 0
-205 -182 0
-205 -11 0
-205 -146 0
-205 -89 0
-205 125 0
205 182 11 146 89 -125 0
201 202 203 204 205 0
-206 -112 0
-206 -10 0
-206 38 0
-206 -56 0
-206 25 0
206 112 10 -38 56 -25 0
-207 163 0
-207 -7 0
-207 109 0
-207 -97 0
-207 -156 0
207 -163 7 -109 97 156 0
-208 -84 0
-208 113 0
-208 -141 0
-208 -93 0
-208 109 0
208 84 -113 141 93 -109 0
-209 21 0
-209 47 0
-209 4 0
-209 -61 0
-209 -116 0
209 -21 -47 -4 61 116 0
-210 20 0
-210 122 0
-210 -3 0
-210 114 0
-210 -187 0
210 -20 -122 3 -114 187 0
206 207 208 209 210 0
-211 7 0
-211 79 0
-211 78 0
-211 86 0
-211 -135 0
211 -7 -79 -78 -86 135 0
-212 145 0
-212 -180 0
-212 -165 0
-212 -148 0
-212 -105 0
212 -145 180 165 148 105 0
-213 89 0
-213 85 0
-213 -172 0
-213 4 0
-213 91 0
213 -89 -85 172 -4 -91 0
-214 178 0
-214 -11 0
-214 170 0
-214 101 0
-214 91 0
214 -178 11 -170 -101 -91 0
-215 -171 0
-215 156 0
-215 115 0
-215 -168 0
-215 60 0
215 171 -156 -115 168 -60 0
211 212 213 214 215 0
-216 116 0
-216 -121 0
-216 57 0
-216 -129 0
-216 -75 0
216 -116 121 -57 129 75 0
-217 42 0
-217 132 0
-217 70 0
-217 89 0
-217 -4 0
217 -42 -132 -70 -89 4 0
-218 -54 0
-218 -166 0
-218 130 0
-218 80 0
-218 -163 0
218 54 166 -130 -80 163 0
-219 147 0
-219 2 0
-219 183 0
-219 -133 0
-219 178 0
219 -147 -2 -183 133 -178 0
-220 19 0
-220 26 0
-220 159 0
-220 -179 0
-220 -20 0
220 -19 -26 -159 179 20 0
216 217 218 219 220 0
-221 66 0
-221 -81 0
-221 -69 0
-221 128 0
-221 35 0
221 -66 81 69 -128 -35 0
-222 73 0
-222 87 0
-222 43 0
-222 -52 0
-222 -107 0
222 -73 -87 -43 52 107 0
-223 83 0
-223 99 0
-223 180 0
-223 183 0
-223 47 0
223 -83 -99 -180 -183 -47 0
-224 -31 0
-224 -25 0
-224 189 0
-224 -139 0
-224 -87 0
224 31 25 -189 139 87 0
-225 83 0
-225 55 0
-225 -183 0
-225 -61 0
-225 6 0
225 -83 -55 183 61 -6 0
221 222 223 224 225 0
-226 -182 0
-226 -181 0
-226 -172 0
-226 -2 0
-226 -51 0
226 182 181 172 2 51 0
-227 139 0
-227 51 0
-227 102 0
-227 -12 0
-227 -45 0
227 -139 -51 -102 12 45 0
-228 -120 0
-228 158 0
-228 43 0
-228 6 0
-228 128 0
228 120 -158 -43 -6 -128 0
-229 -139 0
-229 160 0
-229 26 0
-229 -64 0
-229 163 0
229 139 -160 -26 64 -163 0
-230 -50 0
-230 148 0
-230 -133 0
-230 -24 0
-230 141 0
230 50 -148 133 24 -141 0
226 227 228 229 230 0
-231 -28 0
-231 -131 0
-231 -117 0
-231 -48 0
-231 89 0
231 28 131 117 48 -89 0
-232 -62 0
-232 144 0
-232 53 0
-232 -87 0
-232 -95 0
232 62 -144 -53 87 95 0
-233 -134 0
-233 35 0
-233 -104 0
-233 50 0
-233 164 0
233 134 -35 104 -50 -164 0
-234 -29 0
-234 -121 0
-234 -145 0
-234 -184 0
-234 79 0
234 29 121 145 184 -79 0
-235 -53 0
-235 55 0
-235 5 0
-235 33 0
-235 25 0
235 53 -55 -5 -33 -25 0
231 232 233 234 235 0
-236 86 0
-236 -35 0
-236 -9 0
-236 181 0
-236 -74 0
236 -86 35 9 -181 74 0
-237 -160 0
-237 -179 0
-237 -101 0
-237 84 0
-237 88 0
237 160 179 101 -84 -88 0
-238 61 0
-238 35 0
-238 152 0
-238 30 0
-238 -145 0
238 -61 -35 -152 -30 145 0
-239 106 0
-239 -81 0
-239 -96 0
-239 129 0
-239 59 0
239 -106 81 96 -129 -59 0
-240 -134 0
-240 61 0
-240 84 0
-240 -17 0
-240 -68 0
240 134 -61 -84 17 68 0
236 237 238 239 240 0
-241 -158 0
-241 166 0
-241 98 0
-241 120 0
-241 -129 0
241 158 -166 -98 -120 129 0
-242 110 0
-242 -32 0
-242 -3 0
-242 102 0
-242 17 0
242 -110 32 3 -102 -17 0
-243 -81 0
-243 167 0
-243 -129 0
-243 -168 0
-243 -67 0
243 81 -167 129 168 67 0
-244 -72 0
-244 52 0
-244 -108 0
-244 41 0
-244 -131 0
244 72 -52 108 -41 131 0
-245 -69 0
-245 14 0
-245 164 0
-245 -86 0
-245 70 0
245 69 -14 -164 86 -70 0
241 242 243 244 245 0
-246 142 0
-246 133 0
-246 -47 0
-246 -74 0
-246 189 0
246 -142 -133 47 74 -189 0
-247 66 0
-247 -5 0
-247 -130 0
-247 57 0
-247 88 0
247 -66 5 130 -57 -88 0
-248 43 0
-248 160 0
-248 -13 0
-248 -52 0
-248 86 0
248 -43 -160 13 52 -86 0
-249 10 0
-249 -147 0
-249 -23 0
-249 126 0
-249 -84 0
249 -10 147 23 -126 84 0
-250 -87 0
-250 -114 0
-250 21 0
-250 -158 0
-250 61 0
250 87 114 -21 158 -61 0
246 247 248 249 250 0
-251 66 0
-251 48 0
-251 -147 0
-251 -142 0
-251 22 0
251 -66 -48 147 142 -22 0
-252 124 0
-252 -136 0
-252 -126 0
-252 118 0
-252 51 0
252 -124 136 126 -118 -51 0
-253 -66 0
-253 -149 0
-253 -14 0
-253 -186 0
-253 -92 0
253 66 149 14 186 92 0
-254 -120 0
-254 103 0
-254 -189 0
-254 22 0
-254 126 0
254 120 -103 189 -22 -126 0
-255 91 0
-255 129 0
-255 -109 0
-255 145 0
-255 177 0
255 -91 -129 109 -145 -177 0
251 252 253 254 255 0
-256 45 0
-256 -35 0
-256 -29 0
-256 -119 0
-256 -100 0
256 -45 35 29 119 100 0
-257 39 0
-257 -178 0
-257 106 0
-257 -137 0
-257 -1 0
257 -39 178 -106 137 1 0
-258 -174 0
-258 61 0
-258 -34 0
-258 -19 0
-258 168 0
258 174 -61 34 19 -168 0
-259 9 0
-259 100 0
-259 148 0
-259 47 0
-259 49 0
259 -9 -100 -148 -47 -49 0
-260 108 0
-260 -92 0
-260 130 0
-260 -164 0
-260 -105 0
260 -108 92 -130 164 105 0
256 257 258 259 260 0
-261 60 0
-261 144 0
-261 55 0
-261 -71 0
-261 80 0
261 -60 -144 -55 71 -80 0
-262 189 0
-262 30 0
-262 -171 0
-262 135 0
-262 -51 0
262 -189 -30 171 -135 51 0
-263 115 0
-263 12 0
-263 54 0
-263 -22 0
-263 -7 0
263 -115 -12 -54 22 7 0
-264 -7 0
-264 -82 0
-264 187 0
-264 152 0
-264 106 0
264 7 82 -187 -152 -106 0
-265 16 0
-265 83 0
-265 -139 0
-265 112 0
-265 -145 0
265 -16 -83 139 -112 145 0
261 262 263 264 265 0
-266 -65 0
-266 60 0
-266 -87 0
-266 -105 0
-266 -166 0
266 65 -60 87 105 166 0
-267 -126 0
-267 -108 0
-267 1 0
-267 15 0
-267 -100 0
267 126 108 -1 -15 100 0
-268 -47 0
-268 165 0
-268 -93 0
-268 -151 0
-268 182 0
268 47 -165 93 151 -182 0
-269 -83 0
-269 -65 0
-269 -94 0
-269 92 0
-269 28 0
269 83 65 94 -92 -28 0
-270 154 0
-270 79 0
-270 -90 0
-270 170 0
-270 -137 0
270 -154 -79 90 -170 137 0
266 267 268 269 270 0
-271 21 0
-271 -161 0
-271 126 0
-271 -60 0
-271 76 0
271 -21 161 -126 60 -76 0
-272 27 0
-272 73 0
-272 -102 0
-272 -33 0
-272 18 0
272 -27 -73 102 33 -18 0
-273 96 0
-273 -70 0
-273 90 0
-273 -161 0
-273 68 0
273 -96 70 -90 161 -68 0
-274 -90 0
-274 175 0
-274 -189 0
-274 -163 0
-274 -1 0
274 90 -175 189 163 1 0
-275 9 0
-275 8 0
-275 164 0
-275 5 0
-275 -91 0
275 -9 -8 -164 -5 91 0
271 272 273 274 275 0
-276 81 0
-276 -114 0
-276 16 0
-276 40 0
-276 -2 0
276 -81 114 -16 -40 2 0
-277 185 0
-277 146 0
-277 -39 0
-277 -97 0
-277 75 0
277 -185 -146 39 97 -75 0
-278 -25 0
-278 -154 0
-278 -116 0
-278 -92 0
-278 -170 0
278 25 154 116 92 170 0
-279 98 0
-279 -57 0
-279 -115 0
-279 34 0
-279 169 0
279 -98 57 115 -34 -169 0
-280 -68 0
-280 41 0
-280 -139 0
-280 185 0
-280 12 0
280 68 -41 139 -185 -12 0
276 277 278 279 280 0
-281 -80 0
-281 52 0
-281 42 0
-281 121 0
-281 -77 0
281 80 -52 -42 -121 77 0
-282 72 0
-282 38 0
-282 -52 0
-282 64 0
-282 76 0
282 -72 -38 52 -64 -76 0
-283 -24 0
-283 40 0
-283 35 0
-283 -51 0
-283 168 0
283 24 -40 -35 51 -168 0
-284 -27 0
-284 -166 0
-284 -51 0
-284 32 0
-284 61 0
284 27 166 51 -32 -61 0
-285 74 0
-285 75 0
-285 31 0
-285 79 0
-285 -49 0
285 -74 -75 -31 -79 49 0
281 282 283 284 285 0
-286 84 0
-286 50 0
-286 -10 0
-286 -109 0
-286 -168 0
286 -84 -50 10 109 168 0
-287 -64 0
-287 88 0
-287 -157 0
-287 59 0
-287 -34 0
287 64 -88 157 -59 34 0
-288 -49 0
-288 -119 0
-288 -130 0
-288 -7 0
-288 170 0
288 49 119 130 7 -170 0
-289 -98 0
-289 130 0
-289 -12 0
-289 16 0
-289 -17 0
289 98 -130 12 -16 17 0
-290 57 0
-290 -108 0
-290 23 0
-290 -152 0
-290 -175 0
290 -57 108 -23 152 175 0
286 287 288 289 290 0
-291 -84 0
-291 174 0
-291 -121 0
-291 -80 0
-291 -34 0
291 84 -174 121 80 34 0
-292 49 0
-292 43 0
-292 -61 0
-292 -20 0
-292 -34 0
292 -49 -43 61 20 34 0
-293 -148 0
-293 -165 0
-293 -139 0
-293 -138 0
-293 -93 0
293 148 165 139 138 93 0
-294 86 0
-294 -36 0
-294 -37 0
-294 148 0
-294 -16 0
294 -86 36 37 -148 16 0
-295 -189 0
-295 165 0
-295 157 0
-295 69 0
-295 31 0
295 189 -165 -157 -69 -31 0
291 292 293 294 295 0
-296 31 0
-296 -158 0
-296 52 0
-296 179 0
-296 123 0
296 -31 158 -52 -179 -123 0
-297 12 0
-297 99 0
-297 -125 0
-297 -162 0
-297 76 0
297 -12 -99 125 162 -76 0
-298 9 0
-298 -85 0
-298 140 0
-298 -170 0
-298 -71 0
298 -9 85 -140 170 71 0
-299 -143 0
-299 183 0
-299 -87 0
-299 -61 0
-299 50 0
299 143 -183 87 61 -50 0
-300 -119 0
-300 167 0
-300 -96 0
-300 -190 0
-300 -147 0
300 119 -167 96 190 147 0
296 297 298 299 300 0
-301 32 0
-301 99 0
-301 150 0
-301 188 0
-301 -122 0
301 -32 -99 -150 -188 122 0
-302 50 0
-302 -5 0
-302 154 0
-302 10 0
-302 2 0
302 -50 5 -154 -10 -2 0
-303 29 0
-303 47 0
-303 98 0
-303 162 0
-303 184 0
303 -29 -47 -98 -162 -184 0
-304 1 0
-304 -2 0
-304 150 0
-304 -190 0
-304 -25 0
304 -1 2 -150 190 25 0
-305 112 0
-305 -102 0
-305 -78 0
-305 133 0
-305 5 0
305 -112 102 78 -133 -5 0
301 302 303 304 305 0
-306 179 0
-306 126 0
-306 -101 0
-306 -180 0
-306 183 0
306 -179 -126 101 180 -183 0
-307 142 0
-307 131 0
-307 -50 0
-307 -95 0
-307 -24 0
307 -142 -131 50 95 24 0
-308 -120 0
-308 134 0
-308 115 0
-308 27 0
-308 121 0
308 120 -134 -115 -27 -121 0
-309 -179 0
-309 -190 0
-309 -61 0
-309 -171 0
-309 94 0
309 179 190 61 171 -94 0
-310 -43 0
-310 -178 0
-310 101 0
-310 98 0
-310 -74 0
310 43 178 -101 -98 74 0
306 307 308 309 310 0
-311 -96 0
-311 78 0
-311 11 0
-311 182 0
-311 57 0
311 96 -78 -11 -182 -57 0
-312 86 0
-312 -109 0
-312 150 0
-312 114 0
-312 63 0
312 -86 109 -150 -114 -63 0
-313 97 0
-313 -141 0
-313 -85 0
-313 70 0
-313 7 0
313 -97 141 85 -70 -7 0
-314 -150 0
-314 -176 0
-314 182 0
-314 151 0
-314 13 0
314 150 176 -182 -151 -13 0
-315 -30 0
-315 6 0
-315 34 0
-315 -162 0
-315 -55 0
315 30 -6 -34 162 55 0
311 312 313 314 315 0
-316 -59 0
-316 92 0
-316 -26 0
-316 9 0
-316 76 0
316 59 -92 26 -9 -76 0
-317 -58 0
-317 -74 0
-317 -54 0
-317 111 0
-317 -10 0
317 58 74 54 -111 10 0
-318 -175 0
-318 114 0
-318 115 0
-318 133 0
-318 24 0
318 175 -114 -115 -133 -24 0
-319 -37 0
-319 100 0
-319 159 0
-319 -105 0
-319 -101 0
319 37 -100 -159 105 101 0
-320 -124 0
-320 -113 0
-320 152 0
-320 -79 0
-320 1 0
320 124 113 -152 79 -1 0
316 317 318 319 320 0
-321 56 0
-321 183 0
-321 -36 0
-321 -18 0
-321 145 0
321 -56 -183 36 18 -145 0
-322 -144 0
-322 104 0
-322 -166 0
-322 -43 0
-322 -61 0
322 144 -104 166 43 61 0
-323 166 0
-323 70 0
-323 -102 0
-323 -129 0
-323 -77 0
323 -166 -70 102 129 77 0
-324 61 0
-324 -104 0
-324 -101 0
-324 24 0
-324 40 0
324 -61 104 101 -24 -40 0
-325 -50 0
-325 -122 0
-325 88 0
-325 -109 0
-325 186 0
325 50 122 -88 109 -186 0
321 322 323 324 325 0
-326 -113 0
-326 -128 0
-326 -129 0
-326 178 0
-326 71 0
326 113 128 129 -178 -71 0
-327 -156 0
-327 -119 0
-327 -134 0
-327 -106 0
-327 180 0
327 156 119 134 106 -180 0
-328 -137 0
-328 8 0
-328 118 0
-328 4 0
-328 170 0
328 137 -8 -118 -4 -170 0
-329 118 0
-329 -41 0
-329 -157 0
-329 -114 0
-329 143 0
329 -118 41 157 114 -143 0
-330 -144 0
-330 77 0
-330 184 0
-330 149 0
-330 171 0
330 144 -77 -184 -149 -171 0
326 327 328 329 330 0
-331 -163 0
-331 34 0
-331 -83 0
-331 -132 0
-331 -101 0
331 163 -34 83 132 101 0
-332 -125 0
-332 -66 0
-332 36 0
-332 -17 0
-332 45 0
332 125 66 -36 17 -45 0
-333 -46 0
-333 -174 0
-333 103 0
-333 79 0
-333 -153 0
333 46 174 -103 -79 153 0
-334 -74 0
-334 54 0
-334 79 0
-334 -94 0
-334 -136 0
334 74 -54 -79 94 136 0
-335 135 0
-335 -185 0
-335 116 0
-335 127 0
-335 94 0
335 -135 185 -116 -127 -94 0
331 332 333 334 335 0
-336 -32 0
-336 92 0
-336 -56 0
-336 187 0
-336 76 0
336 32 -92 56 -187 -76 0
-337 125 0
-337 2 0
-337 90 0
-337 184 0
-337 92 0
337 -125 -2 -90 -184 -92 0
-338 -41 0
-338 32 0
-338 5 0
-338 -63 0
-338 130 0
338 41 -32 -5 63 -130 0
-339 161 0
-339 -34 0
-339 79 0
-339 46 0
-339 173 0
339 -161 34 -79 -46 -173 0
-340 99 0
-340 28 0
-340 -43 0
-340 -50 0
-340 79 0
340 -99 -28 43 50 -79 0
336 337 338 339 340 0
-341 34 0
-341 -30 0
-341 75 0
-341 145 0
-341 -52 0
341 -34 30 -75 -145 52 0
-342 -85 0
-342 -136 0
-342 -151 0
-342 -4 0
-342 -77 0
342 85 136 151 4 77 0
-343 -168 0
-343 -178 0
-343 119 0
-343 -32 0
-343 -69 0
343 168 178 -119 32 69 0
-344 -35 0
-344 -12 0
-344 -159 0
-344 -5 0
-344 -86 0
344 35 12 159 5 86 0
-345 163 0
-345 135 0
-345 133 0
-345 -148 0
-345 -51 0
345 -163 -135 -133 148 51 0
341 342 343 344 345 0
-346 118 0
-346 164 0
-346 8 0
-346 132 0
-346 105 0
346 -118 -164 -8 -132 -105 0
-347 -56 0
-347 132 0
-347 174 0
-347 91 0
-347 -55 0
347 56 -132 -174 -91 55 0
-348 190 0
-348 -35 0
-348 185 0
-348 49 0
-348 7 0
348 -190 35 -185 -49 -7 0
-349 -164 0
-349 40 0
-349 116 0
-349 115 0
-349 -106 0
349 164 -40 -116 -115 106 0
-350 53 0
-350 166 0
-350 -114 0
-350 -43 0
-350 94 0
350 -53 -166 114 43 -94 0
346 347 348 349 350 0
-351 90 0
-351 152 0
-351 -84 0
-351 -81 0
-351 150 0
351 -90 -152 84 81 -150 0
-352 -73 0
-352 39 0
-352 31 0
-352 -162 0
-352 152 0
352 73 -39 -31 162 -152 0
-353 -167 0
-353 10 0
-353 -36 0
-353 76 0
-353 60 0
353 167 -10 36 -76 -60 0
-354 185 0
-354 143 0
-354 -173 0
-354 -86 0
-354 69 0
354 -185 -143 173 86 -69 0
-355 -67 0
-355 15 0
-355 41 0
-355 -135 0
-355 65 0
355 67 -15 -41 135 -65 0
351 352 353 354 355 0
-356 145 0
-356 -55 0
-356 -112 0
-356 -15 0
-356 -104 0
356 -145 55 112 15 104 0
-357 -1 0
-357 -134 0
-357 104 0
-357 -82 0
-357 -187 0
357 1 134 -104 82 187 0
-358 169 0
-358 -149 0
-358 -78 0
-358 -26 0
-358 -142 0
358 -169 149 78 26 142 0
-359 -58 0
-359 143 0
-359 -45 0
-359 -187 0
-359 31 0
359 58 -143 45 187 -31 0
-360 -73 0
-360 56 0
-360 2 0
-360 -127 0
-360 102 0
360 73 -56 -2 127 -102 0
356 357 358 359 360 0
-361 142 0
-361 -41 0
-361 -26 0
-361 -55 0
-361 -84 0
361 -142 41 26 55 84 0
-362 1 0
-362 -129 0
-362 134 0
-362 -90 0
-362 -23 0
362 -1 129 -134 90 23 0
-363 162 0
-363 -39 0
-363 129 0
-363 79 0
-363 105 0
363 -162 39 -129 -79 -105 0
-364 127 0
-364 140 0
-364 69 0
-364 15 0
-364 -73 0
364 -127 -140 -69 -15 73 0
-365 112 0
-365 42 0
-365 156 0
-365 -79 0
-365 -40 0
365 -112 -42 -156 79 40 0
361 362 363 364 365 0
-366 176 0
-366 149 0
-366 -144 0
-366 109 0
-366 -131 0
366 -176 -149 144 -109 131 0
-367 121 0
-367 -79 0
-367 31 0
-367 14 0
-367 2 0
367 -121 79 -31 -14 -2 0
-368 98 0
-368 -173 0
-368 142 0
-368 122 0
-368 18 0
368 -98 173 -142 -122 -18 0
-369 173 0
-369 -91 0
-369 61 0
-369 113 0
-369 -139 0
369 -173 91 -61 -113 139 0
-370 111 0
-370 20 0
-370 5 0
-370 181 0
-370 -82 0
370 -111 -20 -5 -181 82 0
366 367 368 369 370 0
-371 46 0
-371 47 0
-371 30 0
-371 -77 0
-371 -131 0
371 -46 -47 -30 77 131 0
-372 -128 0
-372 -147 0
-372 11 0
-372 51 0
-372 98 0
372 128 147 -11 -51 -98 0
-373 40 0
-373 138 0
-373 67 0
-373 71 0
-373 91 0
373 -40 -138 -67 -71 -91 0
-374 -75 0
-374 172 0
-374 -32 0
-374 143 0
-374 63 0
374 75 -172 32 -143 -63 0
-375 147 0
-375 101 0
-375 129 0
-375 61 0
-375 -23 0
375 -147 -101 -129 -61 23 0
371 372 373 374 375 0
-376 -10 0
-376 132 0
-376 28 0
-376 140 0
-376 48 0
376 10 -132 -28 -140 -48 0
-377 -98 0
-377 -35 0
-377 -140 0
-377 -166 0
-377 -157 0
377 98 35 140 166 157 0
-378 -152 0
-378 134 0
-378 -165 0
-378 180 0
-378 -65 0
378 152 -134 165 -180 65 0
-379 -179 0
-379 40 0
-379 -94 0
-379 -183 0
-379 -123 0
379 179 -40 94 183 123 0
-380 -186 0
-380 65 0
-380 -140 0
-380 48 0
-380 88 0
380 186 -65 140 -48 -88 0
376 377 378 379 380 0
-381 43 0
-381 -142 0
-381 162 0
-381 176 0
-381 -131 0
381 -43 142 -162 -176 131 0
-382 -155 0
-382 -123 0
-382 -154 0
-382 181 0
-382 1 0
382 155 123 154 -181 -1 0
-383 82 0
-383 -165 0
-383 -81 0
-383 68 0
-383 -104 0
383 -82 165 81 -68 104 0
-384 -119 0
-384 -167 0
-384 -83 0
-384 162 0
-384 142 0
384 119 167 83 -162 -142 0
-385 -119 0
-385 -156 0
-385 -129 0
-385 -123 0
-385 93 0
385 119 156 129 123 -93 0
381 382 383 384 385 0
-386 -54 0
-386 -165 0
-386 -28 0
-386 -32 0
-386 6 0
386 54 165 28 32 -6 0
-387 58 0
-387 44 0
-387 12 0
-387 -98 0
-387 179 0
387 -58 -44 -12 98 -179 0
-388 166 0
-388 -177 0
-388 -187 0
-388 145 0
-388 -155 0
388 -166 177 187 -145 155 0
-389 -50 0
-389 83 0
-389 -158 0
-389 -138 0
-389 -183 0
389 50 -83 158 138 183 0
-390 171 0
-390 -111 0
-390 -156 0
-390 -117 0
-390 148 0
390 -171 111 156 117 -148 0
386 387 388 389 390 0
-391 137 0
-391 -163 0
-391 -48 0
-391 -86 0
-391 -120 0
391 -137 163 48 86 120 0
-392 120 0
-392 125 0
-392 -39 0
-392 -113 0
-392 121 0
392 -120 -125 39 113 -121 0
-393 180 0
-393 -139 0
-393 80 0
-393 -64 0
-393 5 0
393 -180 139 -80 64 -5 0
-394 -171 0
-394 -28 0
-394 70 0
-394 -153 0
-394 -89 0
394 171 28 -70 153 89 0
-395 -1 0
-395 -2 0
-395 -106 0
-395 134 0
-395 -60 0
395 1 2 106 -134 60 0
391 392 393 394 395 0
-396 -160 0
-396 -100 0
-396 84 0
-396 -165 0
-396 14 0
396 160 100 -84 165 -14 0
-397 81 0
-397 -111 0
-397 46 0
-397 -53 0
-397 105 0
397 -81 111 -46 53 -105 0
-398 -130 0
-398 172 0
-398 -85 0
-398 -78 0
-398 132 0
398 130 -172 85 78 -132 0
-399 105 0
-399 -16 0
-399 101 0
-399 149 0
-399 -21 0
399 -105 16 -101 -149 21 0
-400 -58 0
-400 95 0
-400 172 0
-400 -109 0
-400 108 0
400 58 -95 -172 109 -108 0
396 397 398 399 400 0
-401 -99 0
-401 -138 0
-401 178 0
-401 -19 0
-401 12 0
401 99 138 -178 19 -12 0
-402 112 0
-402 -114 0
-402 35 0
-402 -40 0
-402 110 0
402 -112 114 -35 40 -110 0
-403 127 0
-403 100 0
-403 62 0
-403 -7 0
-403 -18 0
403 -127 -100 -62 7 18 0
-404 29 0
-404 -124 0
-404 83 0
-404 168 0
-404 -158 0
404 -29 124 -83 -168 158 0
-405 -163 0
-405 121 0
-405 -127 0
-405 -65 0
-405 160 0
405 163 -121 127 65 -160 0
401 402 403 404 405 0
-406 -7 0
-406 -47 0
-406 -179 0
-406 -24 0
-406 13 0
406 7 47 179 24 -13 0
-407 182 0
-407 -82 0
-407 72 0
-407 157 0
-407 6 0
407 -182 82 -72 -157 -6 0
-408 74 0
-408 -118 0
-408 21 0
-408 2 0
-408 97 0
408 -74 118 -21 -2 -97 0
-409 -26 0
-409 23 0
-409 -92 0
-409 110 0
-409 -174 0
409 26 -23 92 -110 174 0
-410 158 0
-410 -101 0
-410 189 0
-410 -18 0
-410 -136 0
410 -158 101 -189 18 136 0
406 407 408 409 410 0
-411 -169 0
-411 42 0
-411 -128 0
-411 -6 0
-411 -182 0
411 169 -42 128 6 182 0
-412 131 0
-412 -177 0
-412 102 0
-412 -99 0
-412 19 0
412 -131 177 -102 99 -19 0
-413 56 0
-413 18 0
-413 -17 0
-413 76 0
-413 -1 0
413 -56 -18 17 -76 1 0
-414 126 0
-414 3 0
-414 159 0
-414 -154 0
-414 61 0
414 -126 -3 -159 154 -61 0
-415 11 0
-415 147 0
-415 178 0
-415 -92 0
-415 -31 0
415 -11 -147 -178 92 31 0
411 412 413 414 415 0
-416 -40 0
-416 -95 0
-416 -27 0
-416 158 0
-416 18 0
416 40 95 27 -158 -18 0
-417 160 0
-417 -31 0
-417 -154 0
-417 -67 0
-417 8 0
417 -160 31 154 67 -8 0
-418 60 0
-418 75 0
-418 141 0
-418 -117 0
-418 -184 0
418 -60 -75 -141 117 184 0
-419 -11 0
-419 114 0
-419 153 0
-419 180 0
-419 -56 0
419 11 -114 -153 -180 56 0
-420 183 0
-420 73 0
-420 -69 0
-420 142 0
-420 81 0
420 -183 -73 69 -142 -81 0
416 417 418 419 420 0
-421 -5 0
-421 91 0
-421 -168 0
-421 -101 0
-421 38 0
421 5 -91 168 101 -38 0
-422 -58 0
-422 113 0
-422 4 0
-422 -2 0
-422 -166 0
422 58 -113 -4 2 166 0
-423 -94 0
-423 8 0
-423 -187 0
-423 -142 0
-423 -133 0
423 94 -8 187 142 133 0
-424 122 0
-424 -174 0
-424 56 0
-424 -159 0
-424 -147 0
424 -122 174 -56 159 147 0
-425 16 0
-425 121 0
-425 -3 0
-425 127 0
-425 -14 0
425 -16 -121 3 -127 14 0
421 422 423 424 425 0
-426 -131 0
-426 188 0
-426 164 0
-426 -73 0
-426 22 0
426 131 -188 -164 73 -22 0
-427 -158 0
-427 -171 0
-427 -109 0
-427 -49 0
-427 -183 0
427 158 171 109 49 183 0
-428 106 0
-428 104 0
-428 43 0
-428 -88 0
-428 -152 0
428 -106 -104 -43 88 152 0
-429 6 0
-429 41 0
-429 28 0
-429 7 0
-429 76 0
429 -6 -41 -28 -7 -76 0
-430 -167 0
-430 17 0
-430 -5 0
-430 160 0
-430 -55 0
430 167 -17 5 -160 55 0
426 427 428 429 430 0
